peakDumbCharging = 11100; 
Machine = anon_enum(16); 
machineSpeed = [3700,3700,3700,3700,3700,3700,3700,3700,3700,3700,3700,3700,3700,3700,3700,3700]; 
machineLoad = [3700,3700,3700,3700,3700,3700,3700,3700,3700,3700,3700,3700,3700,3700,3700,3700]; 
Car = anon_enum(12); 
demandCar = [8560,7000,9560,10720,4840,6920,11280,4920,4880,10000,20960,5600]; 
arrivalCar = [75,73,65,64,62,50,47,47,44,44,37,36]; 
departureCar = [79,76,71,71,70,56,54,51,47,48,46,41]; 
